NAME : X-n120-k6
COMMENT : "Generated by Uchoa, Pecin, Pessoa, Poggi, Subramanian, and Vidal (2013)"
TYPE : CVRP
DIMENSION : 120
EDGE_WEIGHT_TYPE : EUC_2D
CAPACITY : 21
NODE_COORD_SECTION
1 0 0
2 927 318
3 319 475
4 471 281
5 894 615
6 712 832
7 677 210
8 336 967
9 490 360
10 367 685
11 153 169
12 799 63
13 247 455
14 492 585
15 131 701
16 309 721
17 210 256
18 511 753
19 447 796
20 394 856
21 131 13
22 181 425
23 892 585
24 161 651
25 964 365
26 82 353
27 706 842
28 793 53
29 364 841
30 126 306
31 86 477
32 51 277
33 192 360
34 52 568
35 682 45
36 778 300
37 10 737
38 928 438
39 95 240
40 391 368
41 586 170
42 645 731
43 381 396
44 387 491
45 388 753
46 429 276
47 547 989
48 840 945
49 88 969
50 331 421
51 55 132
52 904 771
53 63 190
54 731 528
55 320 84
56 308 276
57 891 182
58 836 473
59 209 741
60 864 533
61 852 600
62 180 150
63 544 140
64 956 881
65 432 487
66 129 968
67 597 962
68 51 423
69 827 605
70 776 619
71 354 297
72 311 129
73 552 106
74 24 318
75 148 944
76 502 869
77 396 492
78 815 500
79 425 338
80 178 511
81 168 274
82 775 603
83 481 465
84 281 777
85 216 211
86 784 740
87 127 992
88 544 117
89 92 170
90 846 755
91 614 326
92 180 372
93 720 252
94 262 291
95 171 186
96 868 613
97 291 119
98 427 974
99 481 557
100 403 645
101 819 502
102 915 919
103 581 85
104 527 743
105 953 893
106 955 912
107 269 924
108 216 84
109 601 952
110 441 439
111 170 949
112 614 92
113 439 212
114 413 509
115 545 336
116 50 806
117 166 86
118 658 870
119 122 511
120 178 170
PICKUP_AND_DELIVERY_SECTION
1 0 0 1000000000 0 0 0
2 0 0 1000000000 0 0 1
3 0 0 1000000000 0 0 1
4 0 0 1000000000 0 0 1
5 0 0 1000000000 0 0 1
6 0 0 1000000000 0 0 1
7 0 0 1000000000 0 0 1
8 0 0 1000000000 0 0 1
9 0 0 1000000000 0 0 1
10 0 0 1000000000 0 0 1
11 0 0 1000000000 0 1 0
12 0 0 1000000000 0 0 1
13 0 0 1000000000 0 0 1
14 0 0 1000000000 0 0 1
15 0 0 1000000000 0 0 1
16 0 0 1000000000 0 0 1
17 0 0 1000000000 0 0 1
18 0 0 1000000000 0 0 1
19 0 0 1000000000 0 0 1
20 0 0 1000000000 0 0 1
21 0 0 1000000000 0 1 0
22 0 0 1000000000 0 0 1
23 0 0 1000000000 0 0 1
24 0 0 1000000000 0 0 1
25 0 0 1000000000 0 0 1
26 0 0 1000000000 0 0 1
27 0 0 1000000000 0 0 1
28 0 0 1000000000 0 0 1
29 0 0 1000000000 0 0 1
30 0 0 1000000000 0 0 1
31 0 0 1000000000 0 1 0
32 0 0 1000000000 0 0 1
33 0 0 1000000000 0 0 1
34 0 0 1000000000 0 0 1
35 0 0 1000000000 0 0 1
36 0 0 1000000000 0 0 1
37 0 0 1000000000 0 0 1
38 0 0 1000000000 0 0 1
39 0 0 1000000000 0 0 1
40 0 0 1000000000 0 0 1
41 0 0 1000000000 0 1 0
42 0 0 1000000000 0 0 1
43 0 0 1000000000 0 0 1
44 0 0 1000000000 0 0 1
45 0 0 1000000000 0 0 1
46 0 0 1000000000 0 0 1
47 0 0 1000000000 0 0 1
48 0 0 1000000000 0 0 1
49 0 0 1000000000 0 0 1
50 0 0 1000000000 0 0 1
51 0 0 1000000000 0 1 0
52 0 0 1000000000 0 0 1
53 0 0 1000000000 0 0 1
54 0 0 1000000000 0 0 1
55 0 0 1000000000 0 0 1
56 0 0 1000000000 0 0 1
57 0 0 1000000000 0 0 1
58 0 0 1000000000 0 0 1
59 0 0 1000000000 0 0 1
60 0 0 1000000000 0 0 1
61 0 0 1000000000 0 1 0
62 0 0 1000000000 0 0 1
63 0 0 1000000000 0 0 1
64 0 0 1000000000 0 0 1
65 0 0 1000000000 0 0 1
66 0 0 1000000000 0 0 1
67 0 0 1000000000 0 0 1
68 0 0 1000000000 0 0 1
69 0 0 1000000000 0 0 1
70 0 0 1000000000 0 0 1
71 0 0 1000000000 0 1 0
72 0 0 1000000000 0 0 1
73 0 0 1000000000 0 0 1
74 0 0 1000000000 0 0 1
75 0 0 1000000000 0 0 1
76 0 0 1000000000 0 0 1
77 0 0 1000000000 0 0 1
78 0 0 1000000000 0 0 1
79 0 0 1000000000 0 0 1
80 0 0 1000000000 0 0 1
81 0 0 1000000000 0 1 0
82 0 0 1000000000 0 0 1
83 0 0 1000000000 0 0 1
84 0 0 1000000000 0 0 1
85 0 0 1000000000 0 0 1
86 0 0 1000000000 0 0 1
87 0 0 1000000000 0 0 1
88 0 0 1000000000 0 0 1
89 0 0 1000000000 0 0 1
90 0 0 1000000000 0 0 1
91 0 0 1000000000 0 1 0
92 0 0 1000000000 0 0 1
93 0 0 1000000000 0 0 1
94 0 0 1000000000 0 0 1
95 0 0 1000000000 0 0 1
96 0 0 1000000000 0 0 1
97 0 0 1000000000 0 0 1
98 0 0 1000000000 0 0 1
99 0 0 1000000000 0 0 1
100 0 0 1000000000 0 0 1
101 0 0 1000000000 0 1 0
102 0 0 1000000000 0 0 1
103 0 0 1000000000 0 0 1
104 0 0 1000000000 0 0 1
105 0 0 1000000000 0 0 1
106 0 0 1000000000 0 0 1
107 0 0 1000000000 0 0 1
108 0 0 1000000000 0 0 1
109 0 0 1000000000 0 0 1
110 0 0 1000000000 0 0 1
111 0 0 1000000000 0 1 0
112 0 0 1000000000 0 0 1
113 0 0 1000000000 0 0 1
114 0 0 1000000000 0 0 1
115 0 0 1000000000 0 0 1
116 0 0 1000000000 0 0 1
117 0 0 1000000000 0 0 1
118 0 0 1000000000 0 0 1
119 0 0 1000000000 0 0 1
120 0 0 1000000000 0 0 1
